(declare-const ab1 Bool)
(declare-const ad1 Bool)
(declare-const ac1 Bool)
(declare-const bc1 Bool)
(declare-const cd1 Bool)
(declare-const be1 Bool)
(declare-const ce1 Bool)
(declare-const dg1 Bool)
(declare-const cg1 Bool)
(declare-const cf1 Bool)
(declare-const ef1 Bool)
(declare-const fg1 Bool)
(declare-const eh1 Bool)
(declare-const hi1 Bool)
(declare-const ij1 Bool)
(declare-const jk1 Bool)
(declare-const fk1 Bool)
(declare-const hl1 Bool)
(declare-const il1 Bool)
(declare-const jl1 Bool)
(declare-const kl1 Bool)
(declare-const fl1 Bool)
(declare-const el1 Bool)
(declare-const go1 Bool)
(declare-const on1 Bool)
(declare-const nm1 Bool)
(declare-const mk1 Bool)
(declare-const fp1 Bool)
(declare-const gp1 Bool)
(declare-const op1 Bool)
(declare-const np1 Bool)
(declare-const mp1 Bool)
(declare-const kp1 Bool)
(declare-const ab2 Bool)
(declare-const ad2 Bool)
(declare-const ac2 Bool)
(declare-const bc2 Bool)
(declare-const cd2 Bool)
(declare-const be2 Bool)
(declare-const ce2 Bool)
(declare-const dg2 Bool)
(declare-const cg2 Bool)
(declare-const cf2 Bool)
(declare-const ef2 Bool)
(declare-const fg2 Bool)
(declare-const eh2 Bool)
(declare-const hi2 Bool)
(declare-const ij2 Bool)
(declare-const jk2 Bool)
(declare-const fk2 Bool)
(declare-const hl2 Bool)
(declare-const il2 Bool)
(declare-const jl2 Bool)
(declare-const kl2 Bool)
(declare-const fl2 Bool)
(declare-const el2 Bool)
(declare-const go2 Bool)
(declare-const on2 Bool)
(declare-const nm2 Bool)
(declare-const mk2 Bool)
(declare-const fp2 Bool)
(declare-const gp2 Bool)
(declare-const op2 Bool)
(declare-const np2 Bool)
(declare-const mp2 Bool)
(declare-const kp2 Bool)
(push)
(assert
  (and
    (or ab1 ab2)
    (or ad1 ad2)
    (or ac1 ac2)
    (or bc1 bc2)
    (or cd1 cd2)
    (or be1 be2)
    (or ce1 ce2)
    (or dg1 dg2)
    (or cg1 cg2)
    (or cf1 cf2)
    (or ef1 ef2)
    (or fg1 fg2)
    (or eh1 eh2)
    (or hi1 hi2)
    (or ij1 ij2)
    (or jk1 jk2)
    (or fk1 fk2)
    (or hl1 hl2)
    (or il1 il2)
    (or jl1 jl2)
    (or kl1 kl2)
    (or fl1 fl2)
    (or el1 el2)
    (or go1 go2)
    (or on1 on2)
    (or nm1 nm2)
    (or mk1 mk2)
    (or fp1 fp2)
    (or gp1 gp2)
    (or op1 op2)
    (or np1 np2)
    (or mp1 mp2)
    (or kp1 kp2)
    (or (not ab1) (not ab2))
    (or (not ad1) (not ad2))
    (or (not ac1) (not ac2))
    (or (not bc1) (not bc2))
    (or (not cd1) (not cd2))
    (or (not be1) (not be2))
    (or (not ce1) (not ce2))
    (or (not dg1) (not dg2))
    (or (not cg1) (not cg2))
    (or (not cf1) (not cf2))
    (or (not ef1) (not ef2))
    (or (not fg1) (not fg2))
    (or (not eh1) (not eh2))
    (or (not hi1) (not hi2))
    (or (not ij1) (not ij2))
    (or (not jk1) (not jk2))
    (or (not fk1) (not fk2))
    (or (not hl1) (not hl2))
    (or (not il1) (not il2))
    (or (not jl1) (not jl2))
    (or (not kl1) (not kl2))
    (or (not fl1) (not fl2))
    (or (not el1) (not el2))
    (or (not go1) (not go2))
    (or (not on1) (not on2))
    (or (not nm1) (not nm2))
    (or (not mk1) (not mk2))
    (or (not fp1) (not fp2))
    (or (not gp1) (not gp2))
    (or (not op1) (not op2))
    (or (not np1) (not np2))
    (or (not mp1) (not mp2))
    (or (not kp1) (not kp2))
    (or (not ab1) (not ac1) (not bc1))
    (or (not ab2) (not ac2) (not bc2))
    (or (not ad1) (not ac1) (not cd1))
    (or (not ad2) (not ac2) (not cd2))
    (or (not bc1) (not be1) (not ce1))
    (or (not bc2) (not be2) (not ce2))
    (or (not cd1) (not cg1) (not dg1))
    (or (not cd2) (not cg2) (not dg2))
    (or (not ce1) (not cf1) (not ef1))
    (or (not ce2) (not cf2) (not ef2))
    (or (not cg1) (not cf1) (not fg1))
    (or (not cg2) (not cf2) (not fg2))
    (or (not ef1) (not el1) (not fl1))
    (or (not ef2) (not el2) (not fl2))
    (or (not fg1) (not fp1) (not gp1))
    (or (not fg2) (not fp2) (not gp2))
    (or (not eh1) (not el1) (not hl1))
    (or (not eh2) (not el2) (not hl2))
    (or (not hi1) (not hl1) (not il1))
    (or (not hi2) (not hl2) (not il2))
    (or (not ij1) (not il1) (not jl1))
    (or (not ij2) (not il2) (not jl2))
    (or (not jk1) (not jl1) (not kl1))
    (or (not jk2) (not jl2) (not kl2))
    (or (not fk1) (not fl1) (not kl1))
    (or (not fk2) (not fl2) (not kl2))
    (or (not fk1) (not fp1) (not kp1))
    (or (not fk2) (not fp2) (not kp2))
    (or (not go1) (not gp1) (not op1))
    (or (not go2) (not gp2) (not op2))
    (or (not on1) (not op1) (not np1))
    (or (not on2) (not op2) (not np2))
    (or (not nm1) (not np1) (not mp1))
    (or (not nm2) (not np2) (not mp2))
    (or (not mk1) (not mp1) (not kp1))
    (or (not mk2) (not mp2) (not kp2))))
(check-sat)
(get-model)
(pop)